
Gurobi 10.0.1 (linux64) logging started Tue May 30 13:02:54 2023

Set parameter LogFile to value "logFiles/A-2L-B/A-2L-6U-30F-15V-180D-basic.log"
Gurobi Optimizer version 10.0.1 build v10.0.1rc0 (linux64)

CPU model: Intel(R) Xeon(R) Gold 5115 CPU @ 2.40GHz, instruction set [SSE2|AVX|AVX2|AVX512]
Thread count: 20 physical cores, 40 logical processors, using up to 20 threads

Optimize a model with 54556 rows, 656400 columns and 3721703 nonzeros
Model fingerprint: 0xf8d161ff
Variable types: 1609 continuous, 654791 integer (654791 binary)
Coefficient statistics:
  Matrix range     [1e+00, 2e+05]
  Objective range  [4e+01, 3e+07]
  Bounds range     [1e+00, 1e+00]
  RHS range        [1e+00, 4e+06]
Presolve removed 32556 rows and 43504 columns (presolve time = 5s) ...
Presolve removed 32556 rows and 43504 columns (presolve time = 10s) ...
Presolve removed 32504 rows and 43452 columns
Presolve time: 10.89s
Presolved: 22052 rows, 612948 columns, 2956542 nonzeros
Variable types: 1609 continuous, 611339 integer (611316 binary)
Deterministic concurrent LP optimizer: primal simplex, dual simplex, and barrier
Showing barrier log only...

Root barrier log...

Ordering time: 0.90s

Barrier statistics:
 AA' NZ     : 1.514e+06
 Factor NZ  : 1.372e+07 (roughly 400 MB of memory)
 Factor Ops : 3.246e+10 (less than 1 second per iteration)
 Threads    : 17

                  Objective                Residual
Iter       Primal          Dual         Primal    Dual     Compl     Time
   0  -6.00344927e+16  2.44156421e+12  6.30e+09 5.95e+04  2.34e+11    18s
   1  -1.30535370e+16  3.91549876e+12  1.38e+09 4.25e+05  5.14e+10    18s
   2  -1.59394438e+15  4.23204079e+12  1.69e+08 1.75e-09  6.36e+09    18s
   3  -4.00606720e+13  2.66361689e+12  4.25e+06 1.63e-09  1.62e+08    19s
   4  -1.68113222e+13  7.27713421e+11  1.78e+06 1.51e-09  6.98e+07    19s
   5  -6.98938916e+12  6.39120904e+11  7.40e+05 1.40e-09  2.94e+07    19s
   6  -4.98979298e+12  6.29685026e+11  5.29e+05 1.28e-09  2.12e+07    20s
   7  -1.87543647e+12  4.54419662e+11  1.99e+05 1.40e-09  8.15e+06    20s
   8  -3.72618735e+11  3.34162009e+11  3.95e+04 1.16e-09  1.81e+06    21s
   9  -1.53494191e+11  2.28881534e+11  1.64e+04 1.05e-09  7.87e+05    21s
  10  -1.08301869e+11  1.28726017e+11  1.16e+04 1.91e-08  4.91e+05    21s
  11  -4.99726954e+10  9.73679012e+10  5.42e+03 1.06e-08  2.51e+05    22s
  12  -1.07421618e+10  5.33165471e+10  1.27e+03 1.35e-08  7.94e+04    22s
  13  -3.12918064e+09  1.69577599e+10  4.73e+02 9.08e-09  2.47e+04    23s
  14  -1.25023616e+08  9.07014890e+09  1.62e+02 4.19e-09  1.03e+04    23s
  15   2.80968714e+08  8.14489999e+09  1.21e+02 3.73e-09  8.47e+03    23s
  16   7.63987129e+08  5.67334183e+09  7.21e+01 6.55e-09  5.23e+03    24s
  17   9.70525303e+08  4.95014183e+09  5.12e+01 7.01e-09  4.12e+03    24s
  18   1.06539717e+09  3.97007901e+09  4.17e+01 5.59e-09  3.08e+03    24s
  19   1.21553052e+09  3.34880196e+09  2.72e+01 6.32e-09  2.20e+03    25s
  20   1.24280655e+09  2.93002595e+09  2.46e+01 7.86e-09  1.79e+03    25s
  21   1.30864364e+09  2.58276016e+09  1.88e+01 7.28e-09  1.35e+03    26s
  22   1.35613278e+09  2.39976147e+09  1.49e+01 8.50e-09  1.09e+03    26s
  23   1.35963086e+09  2.39016319e+09  1.46e+01 8.50e-09  1.07e+03    27s
  24   1.38890435e+09  2.13153288e+09  1.20e+01 1.02e-08  7.89e+02    27s
  25   1.43369364e+09  2.02627597e+09  8.14e+00 1.00e-08  6.04e+02    28s
  26   1.46068433e+09  1.85895867e+09  5.78e+00 1.03e-08  4.01e+02    28s
  27   1.50043284e+09  1.81127787e+09  2.51e+00 1.12e-08  2.84e+02    29s
  28   1.50865620e+09  1.73725947e+09  1.90e+00 1.26e-08  2.05e+02    29s
  29   1.51414102e+09  1.67547224e+09  1.46e+00 1.36e-08  1.43e+02    30s
  30   1.51725865e+09  1.64700197e+09  1.27e+00 1.30e-08  1.14e+02    30s
  31   1.52732501e+09  1.62686760e+09  6.17e-01 1.69e-08  8.45e+01    31s
  32   1.53132918e+09  1.59836759e+09  4.48e-01 1.51e-08  5.62e+01    31s
  33   1.53293173e+09  1.58051700e+09  3.82e-01 1.58e-08  3.96e+01    32s
  34   1.53652487e+09  1.57454312e+09  2.39e-01 1.58e-08  3.14e+01    32s
  35   1.53803849e+09  1.56654601e+09  1.93e-01 1.86e-08  2.34e+01    33s
  36   1.53924693e+09  1.56345286e+09  1.63e-01 1.87e-08  1.98e+01    33s
  37   1.53987946e+09  1.55983987e+09  1.49e-01 1.84e-08  1.63e+01    33s
  38   1.54145043e+09  1.55837381e+09  1.15e-01 2.14e-08  1.38e+01    34s
  39   1.54295780e+09  1.55675459e+09  8.43e-02 1.96e-08  1.12e+01    34s
  40   1.54396548e+09  1.55556153e+09  6.84e-02 2.25e-08  9.43e+00    35s
  41   1.54475428e+09  1.55425911e+09  5.67e-02 1.96e-08  7.72e+00    35s
  42   1.54587978e+09  1.55345896e+09  4.00e-02 1.89e-08  6.16e+00    36s
  43   1.54654486e+09  1.55271166e+09  3.10e-02 2.03e-08  5.01e+00    36s
  44   1.54665246e+09  1.55213732e+09  2.99e-02 2.03e-08  4.45e+00    37s
  45   1.54721295e+09  1.55165444e+09  2.34e-02 2.28e-08  3.61e+00    37s
  46   1.54753921e+09  1.55146841e+09  1.97e-02 2.44e-08  3.19e+00    38s
  47   1.54796105e+09  1.55126353e+09  1.53e-02 2.83e-08  2.68e+00    38s
  48   1.54813843e+09  1.55101314e+09  1.35e-02 2.36e-08  2.34e+00    39s
  49   1.54840826e+09  1.55069275e+09  1.08e-02 2.34e-08  1.86e+00    39s
  50   1.54849462e+09  1.55051625e+09  9.89e-03 2.17e-08  1.64e+00    40s
  51   1.54862714e+09  1.55032598e+09  8.62e-03 2.11e-08  1.38e+00    40s
  52   1.54887660e+09  1.55015375e+09  6.32e-03 2.33e-08  1.04e+00    40s
  53   1.54914045e+09  1.54998387e+09  4.03e-03 1.78e-08  6.85e-01    41s
  54   1.54926594e+09  1.54987647e+09  2.97e-03 2.00e-08  4.96e-01    41s
  55   1.54939473e+09  1.54979925e+09  1.88e-03 1.83e-08  3.29e-01    42s
  56   1.54948650e+09  1.54970147e+09  1.14e-03 1.68e-08  1.75e-01    42s
  57   1.54953224e+09  1.54967116e+09  7.71e-04 1.74e-08  1.13e-01    43s
  58   1.54958338e+09  1.54965340e+09  3.68e-04 1.82e-08  5.70e-02    43s
  59   1.54960123e+09  1.54963998e+09  2.29e-04 1.67e-08  3.16e-02    43s
  60   1.54961966e+09  1.54963706e+09  8.81e-05 1.49e-08  1.42e-02    44s
  61   1.54962668e+09  1.54963512e+09  3.55e-05 1.76e-08  6.89e-03    44s
  62   1.54962888e+09  1.54963361e+09  1.94e-05 1.54e-08  3.86e-03    44s
  63   1.54963119e+09  1.54963262e+09  2.80e-06 1.50e-08  1.17e-03    45s
  64   1.54963157e+09  1.54963164e+09  4.43e-07 1.69e-08  5.43e-05    45s
  65   1.54963164e+09  1.54963164e+09  4.81e-08 1.77e-08  2.02e-08    46s
  66   1.54963164e+09  1.54963164e+09  5.88e-10 1.51e-08  5.21e-11    46s

Barrier solved model in 66 iterations and 46.16 seconds (41.86 work units)
Optimal objective 1.54963164e+09


Root crossover log...

   17007 DPushes remaining with DInf 0.0000000e+00                46s
       0 DPushes remaining with DInf 0.0000000e+00                47s

    1366 PPushes remaining with PInf 0.0000000e+00                47s
       0 PPushes remaining with PInf 0.0000000e+00                47s

  Push phase complete: Pinf 0.0000000e+00, Dinf 7.1806056e-08     47s


Root simplex log...

Iteration    Objective       Primal Inf.    Dual Inf.      Time
   18376    1.5496316e+09   0.000000e+00   0.000000e+00     47s
Concurrent spin time: 0.00s

Solved with barrier
   18376    1.5496316e+09   0.000000e+00   0.000000e+00     47s

Root relaxation: objective 1.549632e+09, 18376 iterations, 34.29 seconds (25.09 work units)

    Nodes    |    Current Node    |     Objective Bounds      |     Work
 Expl Unexpl |  Obj  Depth IntInf | Incumbent    BestBd   Gap | It/Node Time

     0     0 1.5496e+09    0  686          - 1.5496e+09      -     -   51s
     0     0 1.5495e+09    0  682          - 1.5495e+09      -     -  159s
     0     0 1.5494e+09    0  676          - 1.5494e+09      -     -  252s
     0     0 1.5494e+09    0  676          - 1.5494e+09      -     -  252s
     0     0 1.5494e+09    0  724          - 1.5494e+09      -     -  289s
     0     0 1.5494e+09    0  718          - 1.5494e+09      -     -  295s
     0     0 1.5494e+09    0  724          - 1.5494e+09      -     -  299s
     0     0 1.5494e+09    0  651          - 1.5494e+09      -     -  353s
     0     0 1.5494e+09    0  658          - 1.5494e+09      -     -  411s
     0     0 1.5494e+09    0  683          - 1.5494e+09      -     -  423s
     0     0 1.5494e+09    0  684          - 1.5494e+09      -     -  428s
     0     0 1.5494e+09    0  689          - 1.5494e+09      -     -  429s
     0     0 1.5494e+09    0  713          - 1.5494e+09      -     -  470s
     0     0 1.5494e+09    0  707          - 1.5494e+09      -     -  491s
     0     0 1.5494e+09    0  712          - 1.5494e+09      -     -  504s
     0     0 1.5494e+09    0  729          - 1.5494e+09      -     -  505s
     0     0 1.5494e+09    0  664          - 1.5494e+09      -     -  530s
     0     0 1.5494e+09    0  711          - 1.5494e+09      -     -  549s
     0     0 1.5494e+09    0  701          - 1.5494e+09      -     -  556s
     0     0 1.5494e+09    0  739          - 1.5494e+09      -     -  567s
     0     0 1.5494e+09    0  734          - 1.5494e+09      -     -  584s
     0     0 1.5494e+09    0  739          - 1.5494e+09      -     -  591s
     0     0 1.5494e+09    0  728          - 1.5494e+09      -     -  611s
     0     0 1.5494e+09    0  735          - 1.5494e+09      -     -  613s
     0     0 1.5494e+09    0  737          - 1.5494e+09      -     -  621s
     0     0 1.5494e+09    0  724          - 1.5494e+09      -     -  720s
     0     2 1.5494e+09    0  716          - 1.5494e+09      -     - 1066s
     1     4 1.5494e+09    1  692          - 1.5494e+09      - 14220 1087s
     3     8 1.5494e+09    2  699          - 1.5494e+09      -  5748 1131s
     7    16 1.5494e+09    3  694          - 1.5494e+09      -  3323 1199s
    15    32 1.5494e+09    4  695          - 1.5494e+09      -  2626 1328s
    31    52 1.5494e+09    5  711          - 1.5494e+09      -  2666 1437s
    51    72 1.5494e+09    6  713          - 1.5494e+09      -  2757 1600s
    71    92 1.5493e+09    7  680          - 1.5494e+09      -  2813 1738s
    91   112 1.5494e+09    7  763          - 1.5494e+09      -  2614 1861s
   111   148 1.5494e+09    8  762          - 1.5494e+09      -  2461 1962s
   147   176 1.5494e+09   10  767          - 1.5494e+09      -  2056 2061s
   175   217 1.5493e+09   10  664          - 1.5494e+09      -  2041 2253s
   216   275 1.5494e+09   11  755          - 1.5494e+09      -  2019 2582s
   274   404 1.5494e+09   14  771          - 1.5494e+09      -  1996 2898s
   403   588 1.5494e+09   21  727          - 1.5494e+09      -  1677 3808s
   587  1027 1.5493e+09   26  648          - 1.5494e+09      -  1646 4924s
  1030  2020 1.5493e+09   44  665          - 1.5494e+09      -  1519 7248s
  2023  3020 1.5493e+09   90  669          - 1.5494e+09      -  1231 8844s
  3023  4020 1.5493e+09  138  674          - 1.5494e+09      -  1003 10052s
  4023  4794 1.5493e+09  188  614          - 1.5494e+09      -   887 10800s

Cutting planes:
  Cover: 43
  Implied bound: 57
  Clique: 2
  MIR: 69
  Flow cover: 97
  GUB cover: 1
  Network: 9
  RLT: 24
  Relax-and-lift: 22

Explored 4797 nodes (4025615 simplex iterations) in 10800.52 seconds (6517.60 work units)
Thread count was 20 (of 40 available processors)

Solution count 0

Time limit reached
Best objective -, best bound 1.549372345257e+09, gap -
IIS computation: initial model status unknown, solving to determine model status
Presolve removed 32556 rows and 43504 columns (presolve time = 5s) ...
Presolve removed 32556 rows and 43504 columns (presolve time = 10s) ...
Presolve removed 32556 rows and 43504 columns (presolve time = 15s) ...
Presolve removed 32556 rows and 43504 columns (presolve time = 20s) ...
Presolve removed 32504 rows and 43452 columns
Presolve time: 20.51s
Presolved: 22052 rows, 612948 columns, 2956542 nonzeros
Variable types: 1609 continuous, 611339 integer (611316 binary)
Deterministic concurrent LP optimizer: primal simplex, dual simplex, and barrier
Showing barrier log only...

Root barrier log...

Ordering time: 1.14s

Barrier statistics:
 AA' NZ     : 1.514e+06
 Factor NZ  : 1.372e+07 (roughly 400 MB of memory)
 Factor Ops : 3.246e+10 (less than 1 second per iteration)
 Threads    : 17

                  Objective                Residual
Iter       Primal          Dual         Primal    Dual     Compl     Time
   0  -0.00000000e+00  1.87914963e+05  6.30e+09 0.00e+00  1.72e+04    32s
   1  -0.00000000e+00  2.90772838e+05  1.38e+09 2.98e-02  3.77e+03    32s
   2  -0.00000000e+00  3.07626013e+05  6.74e+07 1.11e-16  1.85e+02    33s
   3  -0.00000000e+00  1.70521680e+05  4.04e+06 1.25e-16  1.13e+01    34s
   4  -0.00000000e+00  3.41903193e+04  1.16e+06 7.05e-17  2.18e+00    35s
   5  -0.00000000e+00  1.55755564e+04  4.47e+05 3.88e-17  5.36e-01    35s
   6  -0.00000000e+00  1.16230441e+04  2.22e+05 3.08e-17  2.30e-01    36s
   7  -0.00000000e+00  4.88564471e+03  7.16e+04 3.19e-08  4.10e-02    37s
   8  -0.00000000e+00  1.48962917e+03  2.19e+04 1.88e-07  6.02e-03    37s
   9  -0.00000000e+00  2.87613759e+02  7.07e+03 2.04e-07  8.77e-04    38s
  10  -0.00000000e+00  8.25351821e+01  9.98e+02 1.41e-07  1.26e-04    39s
  11  -0.00000000e+00  2.65245877e+01  3.73e+02 7.90e-08  3.92e-05    39s
  12  -0.00000000e+00  1.49075112e+01  1.86e+02 5.32e-08  2.04e-05    40s
  13  -0.00000000e+00  8.33164104e+00  1.13e+02 3.46e-08  1.16e-05    40s
  14  -0.00000000e+00  7.23966180e+00  7.02e+01 3.18e-08  8.88e-06    41s
  15  -0.00000000e+00  4.92760713e+00  4.60e+01 2.51e-08  5.95e-06    41s
  16  -0.00000000e+00  3.31004234e+00  3.97e+01 1.87e-08  4.35e-06    42s
  17  -0.00000000e+00  1.98860892e+00  2.29e+01 1.52e-08  2.56e-06    43s
  18  -0.00000000e+00  1.30778225e+00  1.75e+01 1.22e-08  1.76e-06    43s
  19  -0.00000000e+00  9.09093906e-01  1.48e+01 1.53e-08  1.31e-06    44s
  20  -0.00000000e+00  6.69905992e-01  9.34e+00 2.07e-08  8.95e-07    45s
  21  -0.00000000e+00  3.69553841e-01  6.49e+00 2.67e-08  5.23e-07    45s
  22  -0.00000000e+00  2.01422281e-01  3.20e+00 2.63e-08  2.68e-07    46s
  23  -0.00000000e+00  1.05393997e-01  8.75e-01 2.17e-08  1.16e-07    47s
  24  -0.00000000e+00  2.39025369e-02  8.22e-01 7.50e-09  2.83e-08    47s
  25  -0.00000000e+00  7.55652592e-04  6.90e-01 4.47e-10  1.12e-09    48s
  26  -0.00000000e+00  8.69135470e-06  1.98e-01 6.10e-12  1.41e-11    49s
  27  -0.00000000e+00  6.99122685e-08  4.73e-04 2.09e-13  1.16e-13    49s
  28  -0.00000000e+00  1.17049123e-11  4.05e-08 1.04e-16  1.94e-17    50s

Barrier solved model in 28 iterations and 49.77 seconds (31.41 work units)
Optimal objective -0.00000000e+00

  Building initial crossover basis                                55s
  Building initial crossover basis                                60s
  Building initial crossover basis                                65s
  Building initial crossover basis                                71s
  Building initial crossover basis                                75s
  Building initial crossover basis                                80s
  Building initial crossover basis                                85s

Root crossover log...

   17091 DPushes remaining with DInf 2.6302441e+00                85s
       0 DPushes remaining with DInf 0.0000000e+00                85s

     276 PPushes remaining with PInf 3.0398016e-04                85s
       0 PPushes remaining with PInf 0.0000000e+00                85s

  Push phase complete: Pinf 0.0000000e+00, Dinf 0.0000000e+00     85s


Root simplex log...

Iteration    Objective       Primal Inf.    Dual Inf.      Time
    1566   -0.0000000e+00   0.000000e+00   0.000000e+00     86s
Concurrent spin time: 7.36s (can be avoided by choosing Method=3)

Solved with barrier
    1566   -0.0000000e+00   0.000000e+00   0.000000e+00     93s

Root relaxation: objective -0.000000e+00, 1566 iterations, 67.13 seconds (33.01 work units)
Total elapsed time = 295.87s
Total elapsed time = 301.73s
Total elapsed time = 374.31s
Total elapsed time = 378.19s

    Nodes    |    Current Node    |     Objective Bounds      |     Work
 Expl Unexpl |  Obj  Depth IntInf | Incumbent    BestBd   Gap | It/Node Time

     0     0   -0.00000    0   22          -   -0.00000      -     -  380s
H    0     0                      -0.0000000   -0.00000  0.00%     -  399s
     0     0   -0.00000    0   22   -0.00000   -0.00000  0.00%     -  399s

Explored 1 nodes (404884 simplex iterations) in 399.74 seconds (251.47 work units)
Thread count was 20 (of 40 available processors)

Solution count 1: -0 
No other solutions better than -0

Optimal solution found (tolerance 1.00e-04)
Best objective -0.000000000000e+00, best bound -0.000000000000e+00, gap 0.0000%
IIS runtime: 400.01 seconds (251.47 work units)

Gurobi 10.0.1 (linux64) logging started Tue May 30 22:05:17 2023

Set parameter LogFile to value "logFiles/A-2L-B/A-2L-6U-30F-15V-180D-basic.log"
Gurobi Optimizer version 10.0.1 build v10.0.1rc0 (linux64)

CPU model: Intel(R) Xeon(R) Gold 5115 CPU @ 2.40GHz, instruction set [SSE2|AVX|AVX2|AVX512]
Thread count: 20 physical cores, 40 logical processors, using up to 20 threads

Optimize a model with 54556 rows, 656400 columns and 3721703 nonzeros
Model fingerprint: 0x3d8ff419
Variable types: 1609 continuous, 654791 integer (654791 binary)
Coefficient statistics:
  Matrix range     [1e+00, 2e+05]
  Objective range  [4e+01, 3e+07]
  Bounds range     [1e+00, 1e+00]
  RHS range        [1e+00, 4e+06]
Presolve removed 32556 rows and 43504 columns (presolve time = 5s) ...
Presolve removed 32556 rows and 43504 columns (presolve time = 10s) ...
Presolve removed 32504 rows and 43452 columns
Presolve time: 10.75s
Presolved: 22052 rows, 612948 columns, 2956542 nonzeros
Variable types: 1609 continuous, 611339 integer (611316 binary)
Deterministic concurrent LP optimizer: primal simplex, dual simplex, and barrier
Showing barrier log only...

Root barrier log...

Ordering time: 0.92s

Barrier statistics:
 AA' NZ     : 1.514e+06
 Factor NZ  : 1.372e+07 (roughly 400 MB of memory)
 Factor Ops : 3.246e+10 (less than 1 second per iteration)
 Threads    : 17

                  Objective                Residual
Iter       Primal          Dual         Primal    Dual     Compl     Time
   0  -6.00344927e+16  2.44156421e+12  6.30e+09 5.95e+04  2.34e+11    17s
   1  -1.30535370e+16  3.91549876e+12  1.38e+09 4.25e+05  5.14e+10    17s
   2  -1.59394441e+15  4.23204079e+12  1.69e+08 1.63e-09  6.36e+09    18s
   3  -4.00610214e+13  2.66361703e+12  4.25e+06 1.75e-09  1.62e+08    18s
   4  -1.68076732e+13  7.27688565e+11  1.78e+06 1.86e-09  6.98e+07    19s
   5  -6.98898868e+12  6.39133755e+11  7.40e+05 1.28e-09  2.94e+07    19s
   6  -4.98915323e+12  6.29689942e+11  5.29e+05 1.40e-09  2.12e+07    19s
   7  -1.87530004e+12  4.54379039e+11  1.99e+05 1.22e-09  8.15e+06    20s
   8  -3.70616285e+11  3.34207638e+11  3.93e+04 1.16e-09  1.81e+06    20s
   9  -1.53320992e+11  2.28779667e+11  1.64e+04 1.16e-09  7.87e+05    21s
  10  -1.07860712e+11  1.28645689e+11  1.15e+04 1.61e-08  4.90e+05    21s
  11  -4.98141480e+10  9.71661178e+10  5.40e+03 1.01e-08  2.50e+05    21s
  12  -1.06839424e+10  5.35731157e+10  1.27e+03 5.94e-09  7.95e+04    22s
  13  -3.11461135e+09  1.70313147e+10  4.71e+02 1.12e-08  2.48e+04    22s
  14  -1.21864905e+08  9.15150161e+09  1.62e+02 3.09e-09  1.03e+04    23s
  15   2.79553668e+08  8.22318426e+09  1.21e+02 3.26e-09  8.54e+03    23s
  16   7.57869405e+08  5.71759335e+09  7.27e+01 7.48e-09  5.28e+03    24s
  17   9.45533567e+08  4.99891204e+09  5.37e+01 7.63e-09  4.22e+03    24s
  18   1.03229950e+09  3.96958369e+09  4.51e+01 8.21e-09  3.16e+03    24s
  19   1.24682278e+09  3.35357709e+09  2.38e+01 8.27e-09  2.12e+03    25s
  20   1.29953771e+09  2.88515419e+09  1.89e+01 7.45e-09  1.61e+03    25s
  21   1.34792287e+09  2.43559459e+09  1.52e+01 7.57e-09  1.13e+03    26s
  22   1.38757028e+09  2.28992498e+09  1.16e+01 9.52e-09  9.22e+02    26s
  23   1.40403668e+09  2.11798681e+09  1.04e+01 1.01e-08  7.41e+02    27s
  24   1.43409459e+09  1.99005494e+09  7.93e+00 9.90e-09  5.68e+02    27s
  25   1.47139181e+09  1.89188436e+09  4.77e+00 1.19e-08  4.08e+02    28s
  26   1.48308742e+09  1.74337968e+09  3.91e+00 1.11e-08  2.53e+02    28s
  27   1.50266308e+09  1.71724095e+09  2.44e+00 1.42e-08  1.98e+02    28s
  28   1.50942823e+09  1.69754530e+09  1.88e+00 1.75e-08  1.70e+02    29s
  29   1.51288204e+09  1.67608800e+09  1.63e+00 1.55e-08  1.46e+02    29s
  30   1.52361276e+09  1.62850128e+09  8.02e-01 1.46e-08  9.05e+01    30s
  31   1.52860611e+09  1.62229580e+09  5.53e-01 1.76e-08  7.97e+01    30s
  32   1.53017560e+09  1.59022085e+09  4.84e-01 1.82e-08  5.05e+01    31s
  33   1.53173271e+09  1.58241047e+09  4.22e-01 2.15e-08  4.24e+01    31s
  34   1.53355077e+09  1.57314452e+09  3.44e-01 1.86e-08  3.29e+01    32s
  35   1.53649660e+09  1.56753310e+09  2.38e-01 1.75e-08  2.56e+01    32s
  36   1.53742223e+09  1.56439552e+09  2.13e-01 1.85e-08  2.22e+01    33s
  37   1.53824620e+09  1.56230118e+09  1.92e-01 2.06e-08  1.97e+01    33s
  38   1.53909784e+09  1.56084908e+09  1.72e-01 2.05e-08  1.78e+01    34s
  39   1.54039056e+09  1.55890955e+09  1.45e-01 2.13e-08  1.51e+01    34s
  40   1.54150483e+09  1.55675648e+09  1.23e-01 1.95e-08  1.24e+01    35s
  41   1.54170961e+09  1.55636789e+09  1.19e-01 2.07e-08  1.19e+01    35s
  42   1.54240820e+09  1.55543834e+09  1.06e-01 1.97e-08  1.06e+01    36s
  43   1.54266454e+09  1.55500743e+09  1.01e-01 2.26e-08  1.00e+01    36s
  44   1.54420831e+09  1.55450625e+09  7.33e-02 2.90e-08  8.37e+00    36s
  45   1.54499722e+09  1.55337724e+09  6.02e-02 2.19e-08  6.80e+00    37s
  46   1.54594731e+09  1.55271139e+09  4.49e-02 1.94e-08  5.49e+00    37s
  47   1.54650028e+09  1.55227617e+09  3.72e-02 2.21e-08  4.68e+00    38s
  48   1.54680448e+09  1.55202208e+09  3.31e-02 2.36e-08  4.23e+00    38s
  49   1.54716395e+09  1.55162418e+09  2.84e-02 2.29e-08  3.62e+00    39s
  50   1.54747102e+09  1.55128471e+09  2.44e-02 2.37e-08  3.09e+00    39s
  51   1.54772443e+09  1.55113833e+09  2.13e-02 2.57e-08  2.77e+00    40s
  52   1.54786441e+09  1.55090880e+09  1.96e-02 2.89e-08  2.47e+00    40s
  53   1.54814746e+09  1.55073536e+09  1.62e-02 2.58e-08  2.10e+00    41s
  54   1.54832782e+09  1.55058754e+09  1.40e-02 2.32e-08  1.83e+00    41s
  55   1.54855512e+09  1.55041990e+09  1.13e-02 2.44e-08  1.51e+00    42s
  56   1.54869889e+09  1.55036615e+09  9.66e-03 2.40e-08  1.35e+00    42s
  57   1.54886680e+09  1.55021509e+09  7.76e-03 2.17e-08  1.09e+00    43s
  58   1.54910302e+09  1.55008501e+09  5.17e-03 1.96e-08  7.97e-01    43s
  59   1.54924787e+09  1.54998570e+09  3.68e-03 1.82e-08  5.99e-01    44s
  60   1.54936291e+09  1.54988062e+09  2.52e-03 2.10e-08  4.21e-01    44s
  61   1.54941248e+09  1.54979148e+09  2.03e-03 1.75e-08  3.08e-01    44s
  62   1.54945026e+09  1.54978478e+09  1.67e-03 1.86e-08  2.72e-01    45s
  63   1.54950093e+09  1.54971684e+09  1.20e-03 1.77e-08  1.75e-01    45s
  64   1.54958130e+09  1.54967372e+09  4.42e-04 1.96e-08  7.52e-02    46s
  65   1.54961753e+09  1.54965025e+09  1.16e-04 1.94e-08  2.67e-02    46s
  66   1.54962584e+09  1.54963753e+09  4.29e-05 1.44e-08  9.55e-03    47s
  67   1.54962833e+09  1.54963531e+09  2.36e-05 1.89e-08  5.70e-03    47s
  68   1.54963064e+09  1.54963218e+09  7.04e-06 1.92e-08  1.26e-03    47s
  69   1.54963148e+09  1.54963170e+09  1.11e-06 1.61e-08  1.78e-04    48s
  70   1.54963163e+09  1.54963164e+09  1.50e-07 2.06e-08  3.57e-07    48s
  71   1.54963164e+09  1.54963164e+09  3.40e-10 1.50e-08  2.94e-11    49s

Barrier solved model in 71 iterations and 48.65 seconds (44.10 work units)
Optimal objective 1.54963164e+09


Root crossover log...

   17008 DPushes remaining with DInf 0.0000000e+00                49s
       0 DPushes remaining with DInf 0.0000000e+00                50s

    1366 PPushes remaining with PInf 0.0000000e+00                50s
       0 PPushes remaining with PInf 0.0000000e+00                50s

  Push phase complete: Pinf 0.0000000e+00, Dinf 4.6914501e-02     50s


Root simplex log...

Iteration    Objective       Primal Inf.    Dual Inf.      Time
   18377    1.5496316e+09   0.000000e+00   4.691442e-02     50s
   18378    1.5496316e+09   0.000000e+00   0.000000e+00     50s
Concurrent spin time: 0.01s

Solved with barrier
   18378    1.5496316e+09   0.000000e+00   0.000000e+00     50s

Root relaxation: objective 1.549632e+09, 18378 iterations, 37.08 seconds (27.41 work units)

    Nodes    |    Current Node    |     Objective Bounds      |     Work
 Expl Unexpl |  Obj  Depth IntInf | Incumbent    BestBd   Gap | It/Node Time

     0     0 1.5496e+09    0  711          - 1.5496e+09      -     -   54s
     0     0 1.5495e+09    0  640          - 1.5495e+09      -     -  172s
     0     0 1.5494e+09    0  680          - 1.5494e+09      -     -  257s
     0     0 1.5494e+09    0  666          - 1.5494e+09      -     -  281s
     0     0 1.5494e+09    0  698          - 1.5494e+09      -     -  287s
     0     0 1.5494e+09    0  675          - 1.5494e+09      -     -  340s
     0     0 1.5494e+09    0  646          - 1.5494e+09      -     -  414s
     0     0 1.5494e+09    0  657          - 1.5494e+09      -     -  423s
     0     0 1.5494e+09    0  653          - 1.5494e+09      -     -  428s
     0     0 1.5494e+09    0  670          - 1.5494e+09      -     -  484s
     0     0 1.5494e+09    0  688          - 1.5494e+09      -     -  504s
     0     0 1.5494e+09    0  686          - 1.5494e+09      -     -  505s
     0     0 1.5494e+09    0  687          - 1.5494e+09      -     -  539s
     0     0 1.5494e+09    0  691          - 1.5494e+09      -     -  560s
     0     0 1.5494e+09    0  706          - 1.5494e+09      -     -  562s
     0     0 1.5494e+09    0  680          - 1.5494e+09      -     -  582s
     0     0 1.5494e+09    0  680          - 1.5494e+09      -     -  583s
     0     0 1.5494e+09    0  680          - 1.5494e+09      -     -  601s
     0     0 1.5494e+09    0  694          - 1.5494e+09      -     -  605s
     0     0 1.5494e+09    0  661          - 1.5494e+09      -     -  631s
     0     0 1.5494e+09    0  677          - 1.5494e+09      -     -  658s
     0     0 1.5494e+09    0  705          - 1.5494e+09      -     -  678s
     0     0 1.5494e+09    0  694          - 1.5494e+09      -     -  688s
     0     0 1.5494e+09    0  690          - 1.5494e+09      -     -  693s
     0     0 1.5494e+09    0  657          - 1.5494e+09      -     -  727s
     0     0 1.5494e+09    0  669          - 1.5494e+09      -     -  749s
     0     0 1.5494e+09    0  704          - 1.5494e+09      -     -  757s
     0     0 1.5494e+09    0  660          - 1.5494e+09      -     -  780s
     0     0 1.5494e+09    0  670          - 1.5494e+09      -     -  824s
     0     0 1.5494e+09    0  679          - 1.5494e+09      -     -  834s
     0     0 1.5494e+09    0  695          - 1.5494e+09      -     -  849s
     0     0 1.5494e+09    0  698          - 1.5494e+09      -     -  867s
     0     0 1.5494e+09    0  712          - 1.5494e+09      -     -  885s
     0     0 1.5494e+09    0  705          - 1.5494e+09      -     -  891s
     0     2 1.5494e+09    0  705          - 1.5494e+09      -     - 1376s
     1     4 1.5494e+09    1  689          - 1.5494e+09      - 11551 1428s
     3     8 1.5494e+09    2  681          - 1.5494e+09      -  5558 1491s
     7    16 1.5494e+09    3  665          - 1.5494e+09      -  4041 1550s
    15    32 1.5493e+09    4  677          - 1.5494e+09      -  2660 1596s
    31    52 1.5493e+09    5  685          - 1.5493e+09      -  1989 1684s
    51    72 1.5493e+09    6  688          - 1.5493e+09      -  2314 1797s
    71    92 1.5493e+09    6  672          - 1.5493e+09      -  2731 1851s
    91   112 1.5493e+09    7  680          - 1.5493e+09      -  2407 1947s
   111   140 1.5493e+09    7  653          - 1.5493e+09      -  2380 2050s
   139   166 1.5493e+09    8  654          - 1.5493e+09      -  2270 2128s
   165   193 1.5493e+09   10  687          - 1.5493e+09      -  2172 2279s
   192   221 1.5493e+09   11  650          - 1.5493e+09      -  2215 2360s
   220   254 1.5493e+09   12  661          - 1.5493e+09      -  2104 2447s
   253   281 1.5493e+09   13  668          - 1.5493e+09      -  1947 2550s
   280   317 1.5493e+09   14  680          - 1.5493e+09      -  1877 2642s
   316   349 1.5493e+09   15  683          - 1.5493e+09      -  1781 2755s
   348   373 1.5493e+09   17  692          - 1.5493e+09      -  1740 2884s
   372   416 1.5493e+09   18  693          - 1.5493e+09      -  1759 3057s
   415   478 1.5493e+09   20  681          - 1.5493e+09      -  1791 3248s
   477   542 1.5493e+09   22  640          - 1.5493e+09      -  1747 3430s
   541   619 1.5493e+09   24  650          - 1.5493e+09      -  1713 3787s
   618   705 1.5493e+09   25  641          - 1.5493e+09      -  1665 3998s
   704   849 1.5493e+09   31  681          - 1.5493e+09      -  1636 4268s
   848  1033 1.5493e+09   40  659          - 1.5493e+09      -  1526 4570s
  1032  1234 1.5493e+09   51  630          - 1.5493e+09      -  1415 4934s
  1233  1483 1.5493e+09   64  659          - 1.5493e+09      -  1375 5356s
  1482  1754 1.5493e+09   74  643          - 1.5493e+09      -  1321 5853s
  1753  2220 1.5493e+09   87  651          - 1.5493e+09      -  1315 6349s
  2219  2648 1.5493e+09  120  644          - 1.5493e+09      -  1211 6911s
  2647  3424 1.5493e+09  134  659          - 1.5493e+09      -  1188 7554s
  3425  4320 1.5492e+09  157  663          - 1.5493e+09      -  1083 8198s
  4321  5186 1.5492e+09  198  545          - 1.5493e+09      -   993 9023s
  5187  6141 1.5492e+09  230  594          - 1.5493e+09      -   948 9688s
  6142  7084 1.5492e+09  279  633          - 1.5493e+09      -   893 10378s
  7085  7812 1.5492e+09  327  612          - 1.5493e+09      -   853 10800s

Cutting planes:
  Cover: 40
  Implied bound: 71
  Clique: 2
  MIR: 85
  Flow cover: 133
  GUB cover: 2
  Network: 8
  RLT: 25
  Relax-and-lift: 16

Explored 7813 nodes (6503964 simplex iterations) in 10800.13 seconds (9861.64 work units)
Thread count was 20 (of 40 available processors)

Solution count 0

Time limit reached
Best objective -, best bound 1.549336176469e+09, gap -
IIS computation: initial model status unknown, solving to determine model status
Presolve removed 32556 rows and 43504 columns (presolve time = 5s) ...
Presolve removed 32556 rows and 43504 columns (presolve time = 10s) ...
Presolve removed 32504 rows and 43452 columns
Presolve time: 12.13s
Presolved: 22052 rows, 612948 columns, 2956542 nonzeros
Variable types: 1609 continuous, 611339 integer (611316 binary)
Deterministic concurrent LP optimizer: primal simplex, dual simplex, and barrier
Showing barrier log only...

Root barrier log...

Ordering time: 0.88s

Barrier statistics:
 AA' NZ     : 1.514e+06
 Factor NZ  : 1.372e+07 (roughly 400 MB of memory)
 Factor Ops : 3.246e+10 (less than 1 second per iteration)
 Threads    : 17

                  Objective                Residual
Iter       Primal          Dual         Primal    Dual     Compl     Time
   0  -0.00000000e+00  1.87914963e+05  6.30e+09 0.00e+00  1.72e+04    20s
   1  -0.00000000e+00  2.90772838e+05  1.38e+09 2.98e-02  3.77e+03    20s
   2  -0.00000000e+00  3.07626014e+05  6.74e+07 1.11e-16  1.85e+02    20s
   3  -0.00000000e+00  1.70521624e+05  4.04e+06 1.25e-16  1.13e+01    21s
   4  -0.00000000e+00  3.41904932e+04  1.16e+06 7.05e-17  2.18e+00    21s
   5  -0.00000000e+00  1.55786310e+04  4.47e+05 4.43e-17  5.36e-01    22s
   6  -0.00000000e+00  1.16245493e+04  2.22e+05 3.85e-17  2.30e-01    22s
   7  -0.00000000e+00  4.88588326e+03  7.16e+04 3.18e-08  4.10e-02    23s
   8  -0.00000000e+00  1.48958610e+03  2.19e+04 1.88e-07  6.02e-03    23s
   9  -0.00000000e+00  2.87676208e+02  7.07e+03 2.04e-07  8.77e-04    24s
  10  -0.00000000e+00  8.25136393e+01  9.97e+02 1.41e-07  1.25e-04    24s
  11  -0.00000000e+00  2.65136551e+01  3.73e+02 7.89e-08  3.92e-05    25s
  12  -0.00000000e+00  1.48898694e+01  1.86e+02 5.32e-08  2.04e-05    25s
  13  -0.00000000e+00  8.32787916e+00  1.13e+02 3.46e-08  1.16e-05    25s
  14  -0.00000000e+00  7.23647785e+00  7.02e+01 3.18e-08  8.88e-06    26s
  15  -0.00000000e+00  4.92535272e+00  4.60e+01 2.51e-08  5.95e-06    26s
  16  -0.00000000e+00  3.30828788e+00  3.97e+01 1.87e-08  4.35e-06    26s
  17  -0.00000000e+00  1.98832635e+00  2.29e+01 1.52e-08  2.56e-06    27s
  18  -0.00000000e+00  1.30786795e+00  1.75e+01 1.22e-08  1.76e-06    27s
  19  -0.00000000e+00  9.09847047e-01  1.47e+01 1.53e-08  1.31e-06    28s
  20  -0.00000000e+00  6.72255551e-01  9.38e+00 2.07e-08  8.98e-07    28s
  21  -0.00000000e+00  3.70056691e-01  6.45e+00 2.67e-08  5.23e-07    28s
  22  -0.00000000e+00  2.01084042e-01  3.22e+00 2.64e-08  2.68e-07    29s
  23  -0.00000000e+00  1.05818355e-01  8.53e-01 2.16e-08  1.16e-07    29s
  24  -0.00000000e+00  2.32047195e-02  8.24e-01 7.24e-09  2.72e-08    30s
  25  -0.00000000e+00  7.45926921e-04  7.18e-01 3.39e-10  1.10e-09    30s
  26  -0.00000000e+00  6.18886429e-06  2.09e-01 6.95e-12  1.33e-11    30s
  27  -0.00000000e+00  3.42080964e-08  3.70e-04 2.55e-13  8.20e-14    31s
  28  -0.00000000e+00  2.70131828e-12  1.48e-08 8.45e-17  6.44e-18    31s

Barrier solved model in 28 iterations and 31.30 seconds (31.41 work units)
Optimal objective -0.00000000e+00

  Building initial crossover basis                                35s
  Building initial crossover basis                                40s
  Building initial crossover basis                                45s
  Building initial crossover basis                                50s
  Building initial crossover basis                                55s

Root crossover log...

   17095 DPushes remaining with DInf 2.9800055e+00                56s
       0 DPushes remaining with DInf 0.0000000e+00                56s

     267 PPushes remaining with PInf 8.6917509e-05                56s
       0 PPushes remaining with PInf 0.0000000e+00                56s

  Push phase complete: Pinf 0.0000000e+00, Dinf 0.0000000e+00     56s


Root simplex log...

Iteration    Objective       Primal Inf.    Dual Inf.      Time
    1557   -0.0000000e+00   0.000000e+00   0.000000e+00     56s
Concurrent spin time: 0.00s

Solved with barrier
    1557   -0.0000000e+00   0.000000e+00   0.000000e+00     56s

Root relaxation: objective -0.000000e+00, 1557 iterations, 40.49 seconds (34.85 work units)
Total elapsed time = 106.85s
Total elapsed time = 110.06s
Total elapsed time = 115.47s
Total elapsed time = 121.13s

    Nodes    |    Current Node    |     Objective Bounds      |     Work
 Expl Unexpl |  Obj  Depth IntInf | Incumbent    BestBd   Gap | It/Node Time

     0     0   -0.00000    0   33          -   -0.00000      -     -  128s
     0     0   -0.00000    0  278          -   -0.00000      -     -  252s
     0     0   -0.00000    0  296          -   -0.00000      -     -  273s
     0     0   -0.00000    0   32          -   -0.00000      -     -  419s
H    0     0                      -0.0000000   -0.00000  0.00%     -  432s
     0     0   -0.00000    0   32   -0.00000   -0.00000  0.00%     -  432s

Cutting planes:
  Cover: 6
  Implied bound: 10
  Clique: 5
  MIR: 5
  Flow cover: 17
  RLT: 4

Explored 1 nodes (569510 simplex iterations) in 432.61 seconds (406.14 work units)
Thread count was 20 (of 40 available processors)

Solution count 1: -0 
No other solutions better than -0

Optimal solution found (tolerance 1.00e-04)
Best objective -0.000000000000e+00, best bound -0.000000000000e+00, gap 0.0000%
IIS runtime: 432.86 seconds (406.14 work units)
